100 86268

 74 700
90 736
652 291
487 304
791 783
917 297
389 563
597 250
501 817
982 111
832 830
912 603
255 187
773 543
266 283
209 324
945 352
20 64
966 986
150 32
820 663
276 372
351 647
217 357
586 674
349 730
658 691
16 114
65 657
100 280
419 29
815 415
889 434
245 468
575 705
769 309
289 316
410 61
524 687
135 568
26 350
153 706
627 538
74 470
190 512
338 637
78 661
192 289
912 141
20 157
654 640
385 873
673 410
589 170
224 757
848 833
492 881
823 607
407 861
985 16
771 108
966 93
515 713
474 70
756 497
881 473
965 311
325 871
799 171
211 353
546 775
180 31
348 673
932 817
147 933
633 877
593 320
121 587
326 78
563 258
188 95
801 316
973 876
215 348
187 562
455 434
748 459
282 970
20 297
542 628
957 421
392 62
421 490
969 814
695 99
720 70
563 154
975 765
689 724
896 566
